20J7M/DAT/20J7MULL-17.dat
20 7
49.1063 49.1063
4.2383 4.2383
26.246 26.246
13.7765 13.7765
6.8189 6.8189
10.6384 10.6384
49.1262 49.1262
47.2728 47.2728
10.5655 10.5655
38.1249 38.1249
22.9164 22.9164
37.6181 37.6181
17.0523 17.0523
15.77 15.77
12.0441 12.0441
29.4852 29.4852
0.4786 0.4786
27.7723 27.7723
15.2508 15.2508
45.2504 45.2504
68.5074