20J7M/SOL/20J7MULL-17.sol
solution status: optimal solution found
objective value:                              68.5074
x#1#2                                               1 	(obj:0)
x#2#5                                               1 	(obj:0)
x#3#6                                               1 	(obj:0)
x#4#4                                               1 	(obj:0)
x#5#4                                               1 	(obj:0)
x#6#5                                               1 	(obj:0)
x#7#5                                0.13973806237812 	(obj:0)
x#7#6                                0.86026193762188 	(obj:0)
x#8#1                             0.00720498891540149 	(obj:0)
x#8#3                               0.292705318914894 	(obj:0)
x#8#4                               0.700089692169705 	(obj:0)
x#9#4                                               1 	(obj:0)
x#10#5                                              1 	(obj:0)
x#11#1                                              1 	(obj:0)
x#12#3                                              1 	(obj:0)
x#13#3                                              1 	(obj:0)
x#14#2                              0.466518706404565 	(obj:0)
x#14#7                              0.533468611287252 	(obj:0)
x#15#2                                              1 	(obj:0)
x#16#7                                              1 	(obj:0)
x#17#5                                              1 	(obj:0)
x#18#4                              0.153076986781793 	(obj:0)
x#18#5                              0.293904357939386 	(obj:0)
x#18#7                              0.553018655278822 	(obj:0)
x#19#7                                              1 	(obj:0)
x#20#1                                              1 	(obj:0)
z                                             68.5074 	(obj:1)
